(set-logic QF_S)
(declare-fun var0 () String)
(assert (str.in.re var0 (re.++ (re.+ (re.* (str.to.re "000"))) (re.++ (re.union (re.union (str.to.re "111") (str.to.re "22")) (re.+ (str.to.re "333"))) (re.++ (re.* (re.+ (str.to.re "44"))) (re.++ (re.+ (re.union (str.to.re "5") (str.to.re "6"))) (re.++ (re.union (re.+ (str.to.re "777")) (re.* (str.to.re "888"))) (re.++ (re.* (re.+ (str.to.re "999"))) (re.++ (re.+ (re.* (str.to.re "aa"))) (re.++ (re.* (re.+ (str.to.re "b"))) (re.++ (re.* (re.union (str.to.re "cc") (str.to.re "d"))) (re.++ (re.* (re.+ (str.to.re "ee"))) (re.++ (re.union (re.+ (str.to.re "ff")) (re.union (str.to.re "gg") (str.to.re "hhh"))) (re.++ (re.union (re.union (str.to.re "iii") (str.to.re "j")) (re.* (str.to.re "kk"))) (re.++ (re.+ (re.+ (str.to.re "ll"))) (re.++ (re.+ (re.union (str.to.re "m") (str.to.re "n"))) (re.++ (re.union (re.+ (str.to.re "ooo")) (re.* (str.to.re "p"))) (re.++ (re.* (re.union (str.to.re "q") (str.to.re "r"))) (re.++ (re.* (re.* (str.to.re "ss"))) (re.++ (re.* (re.+ (str.to.re "ttt"))) (re.++ (re.* (re.+ (str.to.re "uu"))) (re.++ (re.union (re.+ (str.to.re "v")) (re.* (str.to.re "www"))) (re.++ (re.union (re.+ (str.to.re "xxx")) (re.* (str.to.re "yyy"))) (re.++ (re.* (re.+ (str.to.re "zzz"))) (re.++ (re.union (re.union (str.to.re "A") (str.to.re "BBB")) (re.+ (str.to.re "C"))) (re.++ (re.union (re.union (str.to.re "D") (str.to.re "EE")) (re.+ (str.to.re "FF"))) (re.++ (re.+ (re.* (str.to.re "GG"))) (re.++ (re.union (re.union (str.to.re "HH") (str.to.re "III")) (re.* (str.to.re "J"))) (re.++ (re.+ (re.* (str.to.re "KKK"))) (re.++ (re.union (re.+ (str.to.re "LL")) (re.* (str.to.re "M"))) (re.++ (re.union (re.union (str.to.re "N") (str.to.re "OOO")) (re.union (str.to.re "P") (str.to.re "QQQ"))) (re.++ (re.union (re.union (str.to.re "RRR") (str.to.re "SSS")) (re.union (str.to.re "T") (str.to.re "UU"))) (re.++ (re.+ (re.* (str.to.re "VV"))) (re.++ (re.union (re.+ (str.to.re "WWW")) (re.union (str.to.re "X") (str.to.re "YYY"))) (re.++ (re.+ (re.union (str.to.re "ZZZ") (str.to.re "!"))) (re.++ (re.union (re.union (str.to.re """""""") (str.to.re "#")) (re.+ (str.to.re "$"))) (re.++ (re.union (re.* (str.to.re "%%")) (re.+ (str.to.re "&"))) (re.++ (re.* (re.union (str.to.re "'") (str.to.re "((("))) (re.++ (re.* (re.union (str.to.re ")") (str.to.re "***"))) (re.++ (re.* (re.+ (str.to.re "++"))) (re.++ (re.* (re.+ (str.to.re ",,"))) (re.++ (re.union (re.* (str.to.re "-")) (re.union (str.to.re ".") (str.to.re "/"))) (re.++ (re.* (re.* (str.to.re "::"))) (re.++ (re.* (re.+ (str.to.re ";;;"))) (re.++ (re.* (re.union (str.to.re "<<") (str.to.re "=="))) (re.++ (re.+ (re.union (str.to.re ">>>") (str.to.re "??"))) (re.++ (re.+ (re.union (str.to.re "@@@") (str.to.re "["))) (re.++ (re.* (re.union (str.to.re "\\") (str.to.re "]"))) (re.* (re.* (str.to.re "^")))))))))))))))))))))))))))))))))))))))))))))))))))
(check-sat)